11
0 80 40 69 45 16 26 5 76 7 57 
75 0 97 59 97 80 76 100 4 55 61 
10 24 0 7 24 48 10 54 34 36 17 
86 92 57 0 80 95 99 73 20 49 32 
78 38 55 5 0 19 39 65 75 38 16 
30 41 5 76 49 0 13 25 60 32 81 
63 82 25 57 41 2 0 12 71 67 49 
2 55 47 62 49 44 2 0 85 56 59 
4 14 32 23 69 35 58 44 0 17 73 
75 32 37 48 26 35 27 93 85 0 25 
40 52 39 5 88 10 76 16 61 48 0 
